SDVRP instances/custom_instances/p02_15_splitx10_0.vrp
NAME:p02_15_splitx10_
BEST_KNOWN: 0
COMMENT: 0
DIMENSION: 337
CAPACITY: 1400
EDGE_WEIGHT_FORMAT: FUNCTION
EDGE_WEIGHT_TYPE: EXACT_2D
NODE_COORD_SECTION
1 0.00000 0.00000
2 -9 10
3 -9 10
4 -9 10
5 -9 10
6 -9 10
7 -42 -27
8 -42 -27
9 -42 -27
10 -42 -27
11 -42 -27
12 -42 -27
13 -38 -6
14 -38 -6
15 -38 -6
16 -38 -6
17 -38 -6
18 -38 -6
19 12 19
20 12 19
21 12 19
22 12 19
23 12 19
24 12 19
25 33 50
26 33 50
27 33 50
28 33 50
29 46 18
30 46 18
31 46 18
32 46 18
33 46 18
34 46 18
35 27 -28
36 27 -28
37 27 -28
38 -7 -13
39 -7 -13
40 -7 -13
41 -7 -13
42 -21 -21
43 -21 -21
44 -21 -21
45 -21 -21
46 -21 -21
47 -21 -21
48 -21 -21
49 -45 -50
50 -45 -50
51 -45 -50
52 19 50
53 19 50
54 -27 14
55 -27 14
56 -27 14
57 -27 14
58 -27 14
59 -27 14
60 -27 14
61 -50 38
62 -50 38
63 -50 38
64 -50 38
65 -50 38
66 -28 3
67 -28 3
68 -28 3
69 -28 3
70 -22 4
71 -22 4
72 -22 4
73 25 -49
74 25 -49
75 -34 34
76 -34 34
77 -34 34
78 -3 -29
79 -3 -29
80 -43 -16
81 -43 -16
82 -43 -16
83 13 -3
84 13 -3
85 13 -3
86 13 -3
87 13 -3
88 -22 -14
89 -22 -14
90 -22 -14
91 -22 -14
92 -22 -14
93 -22 -14
94 27 -24
95 27 -24
96 27 -24
97 27 -24
98 -33 6
99 -33 6
100 -33 6
101 37 45
102 37 45
103 37 45
104 37 45
105 37 45
106 37 45
107 10 38
108 10 38
109 10 38
110 10 38
111 -13 9
112 -13 9
113 -13 9
114 -13 9
115 -13 9
116 13 25
117 13 25
118 13 25
119 13 25
120 49 -26
121 49 -26
122 49 -26
123 49 -26
124 49 -26
125 -16 43
126 -16 43
127 -16 43
128 -16 43
129 -16 43
130 -16 43
131 -21 -37
132 -21 -37
133 -21 -37
134 -21 -37
135 -21 -37
136 -21 -37
137 -6 21
138 -6 21
139 -6 21
140 -6 21
141 -6 21
142 33 -27
143 33 -27
144 33 -27
145 29 39
146 29 39
147 29 39
148 29 39
149 29 39
150 -29 -28
151 -29 -28
152 -29 -28
153 -29 -28
154 -41 5
155 -41 5
156 -41 5
157 30 3
158 30 3
159 30 3
160 -45 -38
161 -45 -38
162 -45 -38
163 -45 -38
164 -45 -38
165 -45 -38
166 -26 -43
167 -26 -16
168 -26 -16
169 -26 -16
170 -26 -16
171 -26 -16
172 -1 39
173 -1 39
174 -1 39
175 -1 39
176 -1 39
177 -1 39
178 -1 39
179 -30 -11
180 -30 -11
181 -30 -11
182 -30 -11
183 -30 -11
184 -30 -11
185 13 41
186 13 41
187 13 41
188 -16 -1
189 -16 -1
190 -16 -1
191 -47 -32
192 -47 -32
193 -47 -32
194 -47 -32
195 -47 -32
196 41 -32
197 41 -32
198 41 -32
199 41 -32
200 41 -32
201 -48 -19
202 -48 -19
203 -48 -19
204 36 -48
205 36 -48
206 36 -48
207 36 26
208 36 26
209 36 26
210 36 26
211 36 26
212 -20 -1
213 -20 -1
214 -20 -1
215 -20 -1
216 -20 -1
217 30 -16
218 30 -16
219 30 -16
220 30 -16
221 -46 -44
222 -46 -44
223 49 5
224 49 5
225 49 5
226 26 -28
227 26 -28
228 26 -28
229 26 -28
230 26 -28
231 26 -28
232 -17 -16
233 -17 -16
234 -17 -16
235 -17 -16
236 25 -7
237 25 -7
238 25 -7
239 34 50
240 45 -21
241 45 -21
242 45 -21
243 45 -21
244 45 -21
245 45 -21
246 11 19
247 11 19
248 11 19
249 11 19
250 11 19
251 11 19
252 10 28
253 10 28
254 10 28
255 10 28
256 10 28
257 -36 2
258 -36 2
259 -36 2
260 23 36
261 23 36
262 23 36
263 23 36
264 41 6
265 41 6
266 41 6
267 41 6
268 41 6
269 41 6
270 13 -23
271 13 -23
272 13 -23
273 13 -23
274 31 -21
275 31 -21
276 31 -21
277 31 -21
278 3 -3
279 3 -3
280 3 -3
281 3 -3
282 3 -3
283 3 -3
284 3 -3
285 3 -3
286 9 -22
287 9 -22
288 9 -22
289 9 -22
290 9 -22
291 9 -22
292 9 -22
293 42 34
294 42 34
295 42 34
296 44 -3
297 44 -3
298 44 -3
299 44 -3
300 44 -3
301 44 -3
302 44 -3
303 -19 31
304 -19 31
305 -19 31
306 -19 31
307 -19 31
308 -19 31
309 -32 -24
310 -32 -24
311 -32 -24
312 -32 -24
313 -32 -24
314 19 -5
315 -8 -6
316 -8 -6
317 -8 -6
318 -44 31
319 -44 31
320 -44 31
321 -44 31
322 -44 31
323 -44 31
324 -44 31
325 -44 31
326 -20 12
327 -20 12
328 -20 12
329 -20 12
330 -20 12
331 -20 12
332 -3 11
333 -3 11
334 -3 11
335 -3 11
336 -3 11
337 -3 11
DEMAND_SECTION
1 0
2 280
3 280
4 14
5 14
6 12
7 280
8 280
9 70
10 14
11 14
12 12
13 140
14 14
15 14
16 14
17 14
18 4
19 280
20 140
21 70
22 14
23 14
24 2
25 140
26 14
27 14
28 2
29 280
30 280
31 70
32 14
33 14
34 2
35 280
36 280
37 140
38 280
39 70
40 14
41 6
42 280
43 280
44 14
45 14
46 14
47 14
48 4
49 280
50 280
51 140
52 280
53 10
54 140
55 70
56 14
57 14
58 14
59 14
60 4
61 280
62 140
63 14
64 14
65 2
66 280
67 280
68 70
69 10
70 280
71 140
72 70
73 280
74 140
75 280
76 280
77 140
78 140
79 70
80 140
81 70
82 10
83 280
84 140
85 14
86 14
87 2
88 280
89 280
90 70
91 14
92 14
93 2
94 140
95 14
96 14
97 2
98 280
99 14
100 6
101 280
102 140
103 70
104 14
105 14
106 2
107 280
108 14
109 14
110 12
111 280
112 280
113 14
114 14
115 2
116 280
117 280
118 70
119 10
120 280
121 140
122 14
123 14
124 12
125 280
126 280
127 14
128 14
129 14
130 8
131 280
132 140
133 70
134 14
135 14
136 2
137 280
138 140
139 14
140 14
141 2
142 140
143 70
144 10
145 280
146 140
147 14
148 14
149 2
150 140
151 14
152 14
153 12
154 280
155 280
156 10
157 280
158 280
159 70
160 280
161 140
162 70
163 14
164 14
165 12
166 280
167 280
168 70
169 14
170 14
171 2
172 280
173 280
174 14
175 14
176 14
177 14
178 4
179 140
180 14
181 14
182 14
183 14
184 4
185 280
186 280
187 70
188 140
189 70
190 10
191 140
192 70
193 14
194 14
195 2
196 280
197 280
198 14
199 14
200 12
201 280
202 140
203 70
204 280
205 140
206 10
207 140
208 70
209 14
210 14
211 2
212 280
213 280
214 14
215 14
216 2
217 140
218 14
219 14
220 2
221 280
222 280
223 280
224 280
225 10
226 140
227 14
228 14
229 14
230 14
231 4
232 280
233 280
234 14
235 6
236 280
237 14
238 6
239 280
240 140
241 70
242 14
243 14
244 14
245 8
246 280
247 70
248 14
249 14
250 14
251 8
252 280
253 140
254 70
255 14
256 6
257 280
258 280
259 140
260 280
261 140
262 14
263 6
264 140
265 70
266 14
267 14
268 14
269 8
270 140
271 70
272 14
273 6
274 280
275 14
276 14
277 2
278 280
279 280
280 70
281 14
282 14
283 14
284 14
285 4
286 280
287 140
288 70
289 14
290 14
291 14
292 8
293 280
294 280
295 10
296 280
297 140
298 14
299 14
300 14
301 14
302 4
303 280
304 280
305 70
306 14
307 14
308 12
309 280
310 70
311 14
312 14
313 12
314 280
315 280
316 70
317 10
318 280
319 280
320 70
321 14
322 14
323 14
324 14
325 4
326 280
327 280
328 14
329 14
330 14
331 8
332 140
333 70
334 14
335 14
336 14
337 8
DEPOT_SECTION
1
-1
EOF