SDVRP instances/custom_instances/p02_15_splitx10_0.sol
336 -1 4 2 3 5 111 114 113 112 110 -32 28 29 33 30 31 223 222 224 268 263 -38 37 39 40 231 234 232 233 316 314 315 -44 45 41 42 46 47 43 87 92 91 88 90 89 -52 51 27 26 24 25 238 102 100 101 105 103 104 146 147 -55 58 57 53 54 317 322 319 318 324 323 321 320 61 64 62 63 60 -59 56 76 74 75 305 307 306 304 303 302 -70 99 97 98 66 68 67 65 214 213 212 -71 155 154 153 258 256 257 -78 77 72 73 203 204 205 195 197 198 199 -85 83 298 301 297 296 300 299 295 266 264 265 267 156 158 157 -86 82 84 20 18 23 21 22 19 137 136 138 140 139 336 332 334 -133 131 135 132 134 130 165 164 162 160 159 149 152 -142 141 143 196 120 121 122 119 123 244 243 239 240 242 241 216 218 219 217 -151 150 48 49 50 220 221 161 163 -166 202 200 201 81 79 80 17 15 13 12 16 14 179 178 183 182 181 180 -170 169 167 168 7 10 11 8 9 6 190 192 193 191 194 310 312 308 311 309 -173 176 174 172 177 175 171 129 127 128 124 125 126 335 333 331 -189 188 187 215 211 69 328 327 326 329 325 330 -207 209 210 206 208 294 293 292 148 144 145 262 260 261 -225 229 227 226 230 228 34 36 35 94 95 96 93 273 275 276 274 -245 248 247 250 117 115 118 116 252 251 254 255 -246 249 259 185 186 184 107 108 106 109 253 -279 278 281 277 283 280 284 282 -288 285 291 289 287 290 286 271 270 269 272 237 236 235 313 0 





OBJ=
2300.075
BEST_KNOWN=
0.000